Version identifier: 20.1.0.0 | 2020-11-10 | 9bedb6d68
CPXPARAM_Threads                                 1
CPXPARAM_TimeLimit                               7200
CPXPARAM_MIP_Tolerances_MIPGap                   0
Generic callback                                 0x60
1 of 1 MIP starts provided solutions.
MIP start 'm1' defined initial solution with objective 1778.1974.
Tried aggregator 1 time.
Reduced MIP has 1 rows, 1001 columns, and 1000 nonzeros.
Reduced MIP has 1000 binaries, 0 generals, 0 SOSs, and 0 indicators.
Presolve time = 0.00 sec. (0.30 ticks)
Probing time = 0.00 sec. (0.11 ticks)
Tried aggregator 1 time.
Reduced MIP has 1 rows, 1001 columns, and 1000 nonzeros.
Reduced MIP has 1000 binaries, 0 generals, 0 SOSs, and 0 indicators.
Presolve time = 0.00 sec. (0.31 ticks)
Probing time = 0.00 sec. (0.11 ticks)
MIP emphasis: balance optimality and feasibility.
MIP search method: dynamic search.
Parallel mode: none, using 1 thread.
Root relaxation solution time = 0.00 sec. (0.21 ticks)

        Nodes                                         Cuts/
   Node  Left     Objective  IInf  Best Integer    Best Bound    ItCnt     Gap

*     0+    0                         1778.1974     4368.0000           145.64%
      0     0     2416.7701     2     1778.1974     4368.0000        0  145.64%
      0     0     2174.6904     3     1778.1974 UserPurge2: 1       17   22.30%
      0     0     2081.3128     5     1778.1974 UserPurge2: 1       31   17.05%
      0     0     1998.6510     6     1778.1974 UserPurge2: 1       50   12.40%
      0     0     1970.8920     7     1778.1974 UserPurge2: 1       64   10.84%
      0     0     1950.1327     6     1778.1974 UserPurge2: 1       85    9.67%
      0     0     1944.9843     8     1778.1974 UserPurge1: 1       91    9.38%
      0     0     1928.2977    10     1778.1974 UserPurge2: 1      126    8.44%
      0     0     1918.6130     9     1778.1974 UserPurge2: 1      141    7.90%
      0     0     1914.5749    10     1778.1974 UserPurge1: 2      148    7.67%
      0     0     1913.9750    11     1778.1974 UserPurge1: 1      151    7.64%
      0     0     1912.1857    12     1778.1974 UserPurge2: 1      165    7.54%
      0     0     1897.6735     9     1778.1974 UserPurge2: 1      192    6.72%
      0     0     1894.0503     9     1778.1974 UserPurge2: 1      202    6.52%
      0     0     1890.4282     9     1778.1974 UserPurge2: 1      224    6.31%
      0     0     1883.8552     9     1778.1974 UserPurge2: 1      253    5.94%
      0     0     1883.5050    11     1778.1974 UserPurge1: 1      255    5.92%
      0     0     1878.1025     9     1778.1974 UserPurge2: 1      285    5.62%
      0     0     1873.2352     9     1778.1974 UserPurge2: 1      308    5.34%
      0     0     1869.5281    10     1778.1974 UserPurge2: 1      322    5.14%
      0     0     1867.0670    11     1778.1974 UserPurge2: 1      347    5.00%
      0     0     1860.3098    10     1778.1974 UserPurge2: 1      376    4.62%
      0     0     1856.4294     9     1778.1974 UserPurge2: 1      396    4.40%
      0     0     1852.8241    10     1778.1974 UserPurge2: 1      419    4.20%
      0     0     1850.3776    10     1778.1974 UserPurge2: 1      443    4.06%
      0     0     1849.7033    10     1778.1974 UserPurge2: 1      452    4.02%
      0     0     1848.7641    11     1778.1974 UserPurge2: 1      463    3.97%
      0     0     1845.0555    12     1778.1974 UserPurge2: 1      499    3.76%
      0     0     1842.0811    13     1778.1974 UserPurge2: 1      515    3.59%
      0     0     1837.7198    11     1778.1974 UserPurge2: 1      546    3.35%
      0     0     1836.7912    12     1778.1974 UserPurge2: 1      557    3.30%
      0     0     1834.1798    11     1778.1974 UserPurge2: 1      583    3.15%
      0     0     1833.2743    12     1778.1974 UserPurge2: 1      593    3.10%
      0     0     1829.7669    12     1778.1974 UserPurge2: 1      615    2.90%
      0     0     1829.7541    13     1778.1974 UserPurge1: 1      617    2.90%
      0     0     1826.9442    10     1778.1974 UserPurge2: 1      636    2.74%
      0     0     1826.7920    11     1778.1974 UserPurge2: 1      642    2.73%
      0     0     1826.6046    12     1778.1974 UserPurge2: 1      649    2.72%
      0     0     1823.6651    10     1778.1974 UserPurge2: 1      670    2.56%
      0     0     1821.6678     8     1778.1974 UserPurge2: 1      684    2.44%
      0     0     1821.2643     9     1778.1974 UserPurge2: 1      691    2.42%
      0     0     1821.0368    10     1778.1974 UserPurge2: 1      701    2.41%
      0     0     1820.8597    11     1778.1974 UserPurge2: 1      706    2.40%
      0     0     1820.1020    11     1778.1974 UserPurge2: 1      714    2.36%
      0     0     1819.9054    12     1778.1974 UserPurge2: 1      720    2.35%
      0     0     1819.4819    13     1778.1974 UserPurge2: 1      734    2.32%
      0     0     1818.8592    14     1778.1974 UserPurge2: 1      754    2.29%
      0     0     1817.8544    14     1778.1974 UserPurge2: 1      780    2.23%
      0     0     1817.5382    15     1778.1974 UserPurge2: 1      794    2.21%
      0     0     1817.3054    16     1778.1974 UserPurge2: 1      809    2.20%
      0     0     1816.9894    17     1778.1974 UserPurge2: 1      824    2.18%
      0     0     1816.4560    17     1778.1974 UserPurge2: 1      839    2.15%
      0     0     1816.1136    17     1778.1974 UserPurge2: 1      853    2.13%
      0     0     1815.0138    16     1778.1974 UserPurge2: 1      883    2.07%
      0     0     1814.0088    15     1778.1974 UserPurge2: 1      897    2.01%
      0     0     1813.8685    16     1778.1974 UserPurge2: 1      905    2.01%
      0     0     1813.0461    15     1778.1974 UserPurge2: 1      919    1.96%
      0     0     1811.9925    14     1778.1974 UserPurge2: 1      945    1.90%
      0     0     1811.2998    14     1778.1974 UserPurge2: 1      959    1.86%
      0     0     1811.0813    15     1778.1974 UserPurge2: 1      975    1.85%
      0     0     1810.1492    14     1778.1974 UserPurge2: 1     1004    1.80%
      0     0     1809.7067    15     1778.1974 UserPurge2: 1     1015    1.77%
      0     0     1809.3682    15     1778.1974 UserPurge2: 1     1023    1.75%
      0     0     1808.5260    14     1778.1974 UserPurge2: 1     1035    1.71%
      0     0     1807.9792    13     1778.1974 UserPurge2: 1     1050    1.67%
      0     0     1807.5893    14     1778.1974 UserPurge2: 1     1073    1.65%
      0     0     1807.4811    15     1778.1974 UserPurge2: 1     1081    1.65%
      0     0     1807.4420    15     1778.1974 UserPurge2: 1     1086    1.64%
      0     0     1807.2540    15     1778.1974 UserPurge2: 1     1099    1.63%
      0     0     1806.8830    16     1778.1974 UserPurge2: 1     1116    1.61%
      0     0     1806.4387    16     1778.1974 UserPurge2: 1     1139    1.59%
      0     0     1806.0233    16     1778.1974 UserPurge2: 1     1150    1.56%
      0     0     1805.6077    15     1778.1974 UserPurge2: 1     1170    1.54%
      0     0     1805.4052    16     1778.1974 UserPurge2: 1     1177    1.53%
      0     0     1805.1824    16     1778.1974 UserPurge2: 1     1186    1.52%
      0     0     1804.9408    16     1778.1974 UserPurge2: 1     1200    1.50%
      0     0     1804.6717    15     1778.1974 UserPurge2: 1     1218    1.49%
      0     0     1804.2326    15     1778.1974 UserPurge2: 1     1238    1.46%
      0     0     1804.1718    16     1778.1974 UserPurge2: 1     1244    1.46%
      0     0     1803.9317    17     1778.1974 UserPurge2: 1     1258    1.45%
      0     0     1803.8611    18     1778.1974 UserPurge2: 1     1266    1.44%
      0     0     1803.7539    17     1778.1974 UserPurge2: 1     1281    1.44%
      0     0     1803.6201    17     1778.1974 UserPurge2: 1     1290    1.43%
      0     0     1803.5401    18     1778.1974 UserPurge2: 1     1297    1.43%
      0     0     1803.4546    18     1778.1974 UserPurge2: 1     1307    1.42%
      0     0     1803.1653    19     1778.1974 UserPurge2: 1     1329    1.40%
      0     0     1802.6600    19     1778.1974 UserPurge2: 1     1350    1.38%
      0     0     1802.3999    17     1778.1974 UserPurge2: 1     1366    1.36%
      0     0     1802.3712    18     1778.1974 UserPurge2: 1     1371    1.36%
      0     0     1802.2829    19     1778.1974 UserPurge2: 1     1386    1.35%
*     0+    0                         1779.1912     1802.2829             1.30%
*     0+    0                         1780.1583     1802.2829             1.24%
      0     2     1802.2829    19     1780.1583     1802.2827     1386    1.24%
Elapsed time = 19.96 sec. (449.25 ticks, tree = 0.01 MB, solutions = 3)
      1     3     1781.6002    20     1780.1583     1802.2504     3334    1.24%
      2     4     1783.9176    15     1780.1583     1783.9173    43034    0.21%
      3     5     1783.6996    16     1780.1583     1783.9173    50667    0.21%
      4     6     1781.3524    10     1780.1583     1783.6995    51239    0.20%
*     5     5      integral     0     1781.2230     1783.6995    51280    0.14%
      7     5     1783.4311    14     1781.2230     1783.6995    64046    0.14%
      8     6     1783.2534    21     1781.2230     1783.6995    82017    0.14%
      9     7     1781.6524     6     1781.2230     1783.6995    89865    0.14%
*    10+    6                         1781.5703     1783.6995             0.12%
     10     8     1781.6462     6     1781.5703     1783.6995    90366    0.12%
     12     8     1781.6428     6     1781.5703     1783.6995    90631    0.12%
Elapsed time = 840.12 sec. (268638.36 ticks, tree = 0.13 MB, solutions = 5)
     14     8     1781.5840     4     1781.5703     1783.6995    91671    0.12%
     17     5        cutoff           1781.5703     1783.2534    92656    0.09%
     18     6     1783.2271    23     1781.5703     1783.2534   100338    0.09%
     19     7     1783.1835    23     1781.5703     1783.2534   110934    0.09%
     20     8     1783.1124    23     1781.5703     1783.2534   122911    0.09%
     21     9     1782.9420    38     1781.5703     1783.2534   144528    0.09%
     22    10     1782.6705    19     1781.5703     1783.2534   167562    0.09%
     23    11     1782.4724    19     1781.5703     1783.2534   189152    0.09%
     24    12     1782.1683    50     1781.5703     1783.2534   248937    0.09%
     25    13     1781.9949    46     1781.5703     1783.2534   310303    0.09%
Elapsed time = 4165.19 sec. (2295306.19 ticks, tree = 0.71 MB, solutions = 5)
     26    14     1781.9541    30     1781.5703     1783.2534   334765    0.09%
     27    15     1781.9069    39     1781.5703     1783.2534   354924    0.09%
     28    16     1781.6680    46     1781.5703     1783.2534   401784    0.09%
     29    17     1781.5969    46     1781.5703     1783.2534   433075    0.09%
     30    16        cutoff           1781.5703     1783.2534   433704    0.09%
     32    16     1781.6458    24     1781.5703     1783.2271   435323    0.09%
     33    15        cutoff           1781.5703     1783.2271   435368    0.09%
     34    14        cutoff           1781.5703     1783.2271   435421    0.09%
     35    15     1782.9165     8     1781.5703     1783.1834   435995    0.09%
*    36     4      integral     0     1782.9093     1783.1834   436088    0.02%
     36     4     1782.9093     0     1782.9093     1783.1834   436088    0.02%
Elapsed time = 6698.61 sec. (4078547.05 ticks, tree = 0.22 MB, solutions = 6)
     38     2        cutoff           1782.9093     1783.1124   436417    0.01%
     39     1        cutoff           1782.9093     1782.9420   436727    0.00%

User cuts applied:  31167

Root node processing (before b&c):
  Real time             =   20.02 sec. (538.70 ticks)
Sequential b&c:
  Real time             = 6685.58 sec. (4083036.44 ticks)
                          ------------
Total (root+branch&cut) = 6705.61 sec. (4083575.14 ticks)
@Parameters: 
is_S_cut                                true
is_add_all_yinF                         true
is_start_value                          true
is_usercut                              true
is_visualization                        false
uc_only_rootnode                        false

data                                    Qi
fn                                      data/Qi/instance_800_1000.csv
mode                                    NewSubmodular
solver                                  cplex

p                                       5
r                                       10

EPS                                     1.0e-06
EPS_vio                                 1.0e-04
beta                                    0.10
gap                                     0.00
nodelimit                               Inf
timelimit                               7200.00


@PrintInfos
ItCnt: 436815
Current gap: 0.00 %
Termination Status: OPTIMAL
Primal Status: FEASIBLE_POINT
Solve Time: 6705.61 sec
Objective Value: 1782.909289
Number of Nodes:     41

CutInfo: [phase] num / time (sec) 
ZLP             [phase1]     0 / 0.00 [rLC]     0 / 0.00 [rUC]     0 / 0.00 [sLC]     0 / 0.00 [sUC]     0 / 0.00 
OldSubmodular   [phase1]     0 / 0.00 [rLC]     0 / 0.00 [rUC]     0 / 0.00 [sLC]     0 / 0.00 [sUC]     0 / 0.00 
NewSubmodular   [phase1]     0 / 0.00 [rLC]    52 / 11.92 [rUC]    91 / 5.60 [sLC]     4 / 13.86 [sUC] 31137 / 2275.24 
PMP             [phase1]     0 / 0.00 [rLC]     5 / 8.43 [rUC]     0 / 0.00 [sLC]     7 / 13.67 [sUC]    43 / 79.67 
Separation Round: [phase1] 0  [rLC] 53  [rUC] 91  [sLC] 7  [sUC] 10479
Root Best Bound 1783.917298
Root Best Integer: 1780.158282
Best Bound: 1782.909289
Best Integer: 1782.909289

